% File represents an instance of a Composite Structure problem to be solved by a CP framework
% Created on 2025-03-26 10:41:35.376
T = 50;
n = 25;
m = 40;
edges = [(1, 2),
(6, 7),
(11, 12),
(16, 17),
(21, 22),
(2, 3),
(7, 8),
(13, 12),
(18, 17),
(23, 22),
(4, 3),
(9, 8),
(14, 13),
(19, 18),
(24, 23),
(5, 4),
(10, 9),
(14, 15),
(19, 20),
(25, 24),
(6, 1),
(6, 11),
(11, 16),
(16, 21),
(7, 2),
(7, 12),
(12, 17),
(17, 22),
(8, 3),
(8, 13),
(13, 18),
(18, 23),
(9, 4),
(14, 9),
(14, 19),
(19, 24),
(10, 5),
(10, 15),
(15, 20),
(25, 20)];
counts = [|8, 10, 8, 18,
|8, 6, 8, 18,
|8, 6, 8, 14,
|8, 8, 8, 14,
|8, 8, 8, 16,
|8, 10, 8, 24,
|8, 8, 8, 20,
|8, 6, 8, 20,
|8, 8, 8, 20,
|8, 8, 8, 22,
|8, 8, 8, 20,
|8, 6, 8, 16,
|8, 6, 8, 18,
|8, 8, 8, 22,
|8, 6, 8, 22,
|8, 6, 8, 18,
|6, 6, 6, 16,
|8, 6, 8, 16,
|8, 6, 8, 20,
|8, 4, 8, 20,
|8, 6, 8, 16,
|6, 4, 6, 16,
|6, 6, 6, 16,
|8, 6, 8, 18,
|8, 8, 8, 20|];
